Mg2SiSn
12.07723966209531
 1.0 0.0 0.0
 0.0 1.0 0.0
 0.0 0.0 1.0
Mg   Sn   Si
8    3    1
Direct
      0.25000000000000      0.25000000000000      0.25000000000000
      0.25000000000000      0.75000000000000      0.75000000000000
      0.75000000000000      0.25000000000000      0.75000000000000
      0.75000000000000      0.75000000000000      0.25000000000000
      0.75000000000000      0.75000000000000      0.75000000000000
      0.75000000000000      0.25000000000000      0.25000000000000
      0.25000000000000      0.75000000000000      0.25000000000000
      0.25000000000000      0.25000000000000      0.75000000000000
      0.00000000000000      0.00000000000000      0.00000000000000
      0.50000000000000      0.00000000000000      0.50000000000000
      0.50000000000000      0.50000000000000      0.00000000000000
      0.00000000000000      0.50000000000000      0.50000000000000
